3 
4  46 
5  06 27 40 57 
6  13 29 44 59 
7  14 29 44 59 
8  14 29 44 59 
9  15 30 45 
10  00 15 29 44 59 
11  14 29 44 59 
12  14 29 44 59 
13  14 29 44 59 
14  14 29 44 59 
15  14 29 44 59 
16  14 29 44 59 
17  14 29 44 59 
18  14 29 44 59 
19  14 29 44 59 
20  17 32 47 
21  01 17 32 47 
22  02 17 32 46 
23  04 
0 
